c Random generated cnf formula, satisfiable: false
p cnf 10 50
-3 -9 4 0
5 -6 -2 0
7 -8 -1 0
4 10 6 0
-9 -10 1 0
7 9 -5 0
3 -5 -10 0
3 2 -5 0
3 -7 -1 0
-4 7 1 0
-3 -2 6 0
-5 -7 -3 0
4 -10 1 0
6 -2 5 0
-10 8 4 0
-5 -10 -1 0
4 5 -9 0
9 1 10 0
-5 -8 6 0
4 -1 -2 0
-10 -8 -1 0
-5 -8 2 0
-10 7 1 0
-8 -5 2 0
8 4 2 0
-2 9 -6 0
-1 10 -2 0
-1 -4 7 0
-8 -6 5 0
1 -2 3 0
-6 -10 5 0
-8 10 6 0
7 -9 6 0
-8 -10 5 0
10 7 -8 0
3 5 -9 0
5 6 -3 0
-5 1 3 0
10 5 -8 0
-3 -4 -6 0
-8 6 5 0
-9 5 6 0
-1 2 -9 0
3 1 -6 0
-4 -3 -5 0
-4 -6 -1 0
7 -6 8 0
9 2 5 0
7 10 -3 0
5 3 -6 0
